NAME : cgl_58.5093.tour
COMMENT : Length = 5093
COMMENT : Found by LKH-3 [Keld Helsgaun] Fri Nov  8 19:20:30 2024
TYPE : TOUR
DIMENSION : 58
TOUR_SECTION
15
8
22
10
23
20
13
26
9
27
24
29
32
28
30
31
55
42
48
52
33
47
44
46
43
35
51
50
53
54
41
40
39
49
34
45
36
38
37
56
57
58
1
2
3
4
5
6
25
14
17
16
11
7
19
12
21
18
-1
EOF
